DATASET = "thpack2";
INSTANCE = "069";

WIDTH = 233;
HEIGHT = 220;
LENGTH = 587;

NO_OF_SHAPES = 5;
size = [|
  91,50,32 |
  118,66,40 |
  75,69,32 |
  81,73,32 |
  97,69,33 |
|];

verticality = [|
  0,1,1 |
  0,1,1 |
  0,0,1 |
  0,0,1 |
  0,0,1 |
|];

box_count = [
  33,
  30,
  30,
  24,
  29,
];
